$molecule
0 1
C    0.00000000    0.00000000    0.00000000
C    0.00000000    0.00000000    2.36638185
C    3.29776558    0.00000000    0.79130900
C   -0.18394388    0.91444263    1.18252930
C    0.22835937   -1.27071696    1.91926388
C    0.22866298   -1.27054452    0.44856454
H   -0.06964062    0.31799064   -1.04364251
H   -1.19230777    1.37384010    1.18134404
H    0.54325690    1.74871026    1.18289062
H   -0.06815992    0.31960402    3.40953105
H    0.39529010   -2.15539258    2.53952184
H    0.39118718   -2.15588955   -0.17202813
C    3.25161248    0.83382385    1.85467010
H    3.30703920    0.37956916   -0.23504823
H    3.23834108    0.44732262    2.87746254
H    3.22879966    1.91728744    1.70537863
C    3.34211457   -1.43115191    0.95247441
N    3.38302940   -2.61147926    1.08068442
$end

$rem
   !SCF_GUESS         read
   !SKIP_CIS_RPA      TRUE
   METHOD             wB97XD
   RPA                TRUE
   BASIS              6-311++G**
   CIS_N_ROOTS        100
   CIS_SINGLETS       TRUE
   CIS_TRIPLETS       FALSE
   MAKE_CUBE_FILES    TRUE
   PLOTS              TRUE
   STS_MOM            TRUE
   SYM_IGNORE         TRUE
   SYMMETRY           FALSE
$end

$plots
   grid_points                    100 100 100
   total_density                  0-100
   transition_density             1-100
$end


































